SCIP Status        : solving was interrupted [time limit reached]
Total Time         :    3600.03
  solving          :    3600.00
  presolving       :       0.41 (included in solving)
  reading          :       0.03
  copying          :       0.06 (13 #copies) (minimal 0.00, maximal 0.01, average 0.00)
Original Problem   :
  Problem name     : gastrans582_cold13_95
  Variables        : 2186 (232 binary, 18 integer, 0 implicit integer, 1936 continuous)
  Constraints      : 3732 initial, 3732 maximal
  Objective        : minimize, 0 non-zeros (abs.min = 1e+20, abs.max = -1e+20)
Presolved Problem  :
  Problem name     : t_gastrans582_cold13_95
  Variables        : 1862 (78 binary, 0 integer, 0 implicit integer, 1784 continuous)
  Constraints      : 1012 initial, 1030 maximal
  Objective        : minimize, 0 non-zeros (abs.min = 1e+20, abs.max = -1e+20)
  Nonzeros         : 2691 constraint, 362 clique table
Presolvers         :   ExecTime  SetupTime  Calls  FixedVars   AggrVars   ChgTypes  ChgBounds   AddHoles    DelCons    AddCons   ChgSides   ChgCoefs
  boundshift       :       0.00       0.00      0          0          0          0          0          0          0          0          0          0
  convertinttobin  :       0.00       0.00      0          0          0          0          0          0          0          0          0          0
  domcol           :       0.00       0.00      5          0          0          0          0          0          0          0          0          0
  dualagg          :       0.00       0.00      0          0          0          0          0          0          0          0          0          0
  dualcomp         :       0.00       0.00      5          0          0          0          0          0          0          0          0          0
  dualinfer        :       0.00       0.00      0          0          0          0          0          0          0          0          0          0
  dualsparsify     :       0.00       0.00      1          0          0          0          0          0          0          0          0          0
  gateextraction   :       0.00       0.00     13          0          0          0          0          0          3          0          0          0
  implics          :       0.00       0.00     20          0          4          0          0          0          0          0          0          0
  inttobinary      :       0.00       0.00      0          0          0          0          0          0          0          0          0          0
  qpkktref         :       0.00       0.00      0          0          0          0          0          0          0          0          0          0
  redvub           :       0.00       0.00      0          0          0          0          0          0          0          0          0          0
  sparsify         :       0.00       0.00      1          0          0          0          0          0          0          0          0          0
  stuffing         :       0.00       0.00      0          0          0          0          0          0          0          0          0          0
  trivial          :       0.00       0.00     46        223          0          0          0          0          0          0          0          0
  tworowbnd        :       0.00       0.00      0          0          0          0          0          0          0          0          0          0
  dualfix          :       0.00       0.00     46         59          0          0          0          0          0          0          0          0
  genvbounds       :       0.00       0.00      0          0          0          0          0          0          0          0          0          0
  probing          :       0.04       0.00      5         35         45          0         62          0          0          0          0          0
  pseudoobj        :       0.00       0.00      0          0          0          0          0          0          0          0          0          0
  symmetry         :       0.00       0.00      1          0          0          0          0          0          0          0          0          0
  vbounds          :       0.00       0.00      5          0          6          0          0          0          0          0          0          0
  varbound         :       0.00       0.00     50          0          0          0          4          0        111          2         25         38
  knapsack         :       0.00       0.00     60          0          0          0          0          0          1          1          0          0
  setppc           :       0.00       0.00     60          0          1          0          0          0         17          0          1          1
  linear           :       0.02       0.00     58        267        925          0        946          0       2103          0        287        623
  logicor          :       0.00       0.00     57         16          0          0          0          0         28          0          0        196
  bounddisjunction :       0.00       0.00      0          0          0          0          0          0          0          0          0          0
  nonlinear        :       0.30       0.01     71          0          0          0        837          0        423         -3          0       -858
  benders          :       0.00       0.00      0          0          0          0          0          0          0          0          0          0
  components       :       0.03       0.00      1         17          0          0          0          0         12          0          0          0
  root node        :          -          -      -          0          -          -       1157          -          -          -          -          -
Constraints        :     Number  MaxNumber  #Separate #Propagate    #EnfoLP    #EnfoRelax  #EnfoPS    #Check   #ResProp    Cutoffs    DomReds       Cuts    Applied      Conss   Children
  benderslp        :          0          0          0          0     372838          0          0        101          0          0          0          0          0          0          0
  integral         :          0          0          0          0     372838          0          0        101          0          0         63          0          0          0       1408
  varbound         :        134        134         27    1032859          0          0          0         97         60         11       9655          0          0          0          0
  knapsack         :          1          1         27       1978          0          0          0         44          5          0          4          0          0          0          0
  setppc           :         23+        27         27    1032840          0          0          0         44          9          3        180          0          0          0          0
  linear           :        401+       413         27    1032845          0          0          0         44        108       4670    2069168          0          0          0          0
  logicor          :          7+         9         27       2830          0          0          0         16          5          4          5          0          0          0          0
  bounddisjunction :          0+         2          0        422          0          0          0          0          0         10          8          0          0          0          0
  nonlinear        :        446        446     560555    1028161     372129          0          0         16          0      14210   42113650   11350809   10706671          0     236248
  benders          :          0          0          0          0          0          0          0          0          0          0          0          0          0          0          0
  countsols        :          0          0          0          0          0          0          0          0          0          0          0          0          0          0          0
  components       :          0          0          0          0          0          0          0          0          0          0          0          0          0          0          0
Constraint Timings :  TotalTime  SetupTime   Separate  Propagate     EnfoLP     EnfoPS     EnfoRelax   Check    ResProp    SB-Prop
  benderslp        :       0.13       0.00       0.00       0.00       0.13       0.00       0.00       0.00       0.00       0.00
  integral         :       0.26       0.00       0.00       0.00       0.26       0.00       0.00       0.00       0.00       0.00
  varbound         :       0.15       0.00       0.00       0.14       0.00       0.00       0.00       0.00       0.00       0.00
  knapsack         :       0.00       0.00       0.00       0.00       0.00       0.00       0.00       0.00       0.00       0.00
  setppc           :       0.12       0.00       0.00       0.12       0.00       0.00       0.00       0.00       0.00       0.00
  linear           :       5.24       0.00       0.00       5.23       0.00       0.00       0.00       0.00       0.00       0.00
  logicor          :       0.00       0.00       0.00       0.00       0.00       0.00       0.00       0.00       0.00       0.00
  bounddisjunction :       0.00       0.00       0.00       0.00       0.00       0.00       0.00       0.00       0.00       0.00
  nonlinear        :    1395.97       0.01     752.31     164.94     478.70       0.00       0.00       0.01       0.00       0.01
  benders          :       0.00       0.00       0.00       0.00       0.00       0.00       0.00       0.00       0.00       0.00
  countsols        :       0.00       0.00       0.00       0.00       0.00       0.00       0.00       0.00       0.00       0.00
  components       :       0.06       0.00       0.00       0.06       0.00       0.00       0.00       0.00       0.00       0.00
Propagators        : #Propagate   #ResProp    Cutoffs    DomReds
  dualfix          :         11          0          0          0
  genvbounds       :     456130          2         22      98958
  nlobbt           :          0          0          0          0
  obbt             :          7          0          0         69
  probing          :          0          0          0          0
  pseudoobj        :          0          0          0          0
  redcost          :          0          0          0          0
  rootredcost      :          0          0          0          0
  symmetry         :          0          0          0          0
  vbounds          :      11036          0          0          0
Propagator Timings :  TotalTime  SetupTime   Presolve  Propagate    ResProp    SB-Prop
  dualfix          :       0.00       0.00       0.00       0.00       0.00       0.00
  genvbounds       :       2.01       0.00       0.00       2.01       0.00       0.00
  nlobbt           :       0.00       0.00       0.00       0.00       0.00       0.00
  obbt             :       1.40       0.00       0.00       1.40       0.00       0.00
  probing          :       0.04       0.00       0.04       0.00       0.00       0.00
  pseudoobj        :       0.33       0.00       0.00       0.33       0.00       0.00
  redcost          :       0.17       0.00       0.00       0.17       0.00       0.00
  rootredcost      :       0.21       0.00       0.00       0.21       0.00       0.00
  symmetry         :       0.13       0.00       0.00       0.12       0.00       0.00
  vbounds          :       0.38       0.00       0.00       0.38       0.00       0.00
Conflict Analysis  :       Time      Calls    Success    DomReds  Conflicts   Literals    Reconvs ReconvLits   Dualrays   Nonzeros   LP Iters   (pool size: [10000,10000])
  propagation      :       0.00         50         46          -         46        3.3          1        5.0          -          -          -
  infeasible LP    :       6.38      52847       1281          -         18        5.6          2        3.0       1281        4.1          0
  bound exceed. LP :       0.00          0          0          -          0        0.0          0        0.0          0        0.0          0
  strong branching :       0.00          0          0          -          0        0.0          0        0.0          -          -          0
  pseudo solution  :       0.00          0          0          -          0        0.0          0        0.0          -          -          -
  applied globally :       0.00          -          -          0          7        2.3          -          -         14          -          -
  applied locally  :          -          -          -          0          0        0.0          -          -       1267          -          -
Separators         :   ExecTime  SetupTime      Calls  RootCalls    Cutoffs    DomReds  FoundCuts ViaPoolAdd  DirectAdd    Applied ViaPoolApp  DirectApp      Conss
  cut pool         :       0.09          -      53048         58          -          -       1800       1512          -          -          -          -          -    (maximal pool size:       1639)
  aggregation      :       0.15       0.00         72         27          0          0       1569        859        518        219        102        117          0
  > cmir           :          -          -          -          -          -          -          -        751        368        163         85         78          -
  > flowcover      :          -          -          -          -          -          -          -         98        148         51         13         38          -
  > knapsackcover  :          -          -          -          -          -          -          -         10          2          5          4          1          -
  cgmip            :       0.00       0.00          0          0          0          0          0          0          0          0          0          0          0
  clique           :       0.00       0.00         27         27          0          0          0          0          0          0          0          0          0
  closecuts        :       0.00       0.00          0          0          0          0          0          0          0          0          0          0          0
  convexproj       :       0.00       0.00          0          0          0          0          0          0          0          0          0          0          0
  disjunctive      :       0.00       0.00          0          0          0          0          0          0          0          0          0          0          0
  eccuts           :       0.00       0.00          0          0          0          0          0          0          0          0          0          0          0
  gauge            :       0.00       0.00          0          0          0          0          0          0          0          0          0          0          0
  gomory           :       0.01       0.00         55         10          0          0        186         66         85         41         16         25          0
  > gomorymi       :          -          -          -          -          -          -          -         62         83         39         15         24          -
  > strongcg       :          -          -          -          -          -          -          -          4          2          2          1          1          -
  impliedbounds    :       0.01       0.00         72         27          0          0        490        453          0         58         58          0          0
  interminor       :       0.00       0.00          0          0          0          0          0          0          0          0          0          0          0
  intobj           :       0.00       0.00          0          0          0          0          0          0          0          0          0          0          0
  mcf              :       0.00       0.00          1          1          0          0          0          0          0          0          0          0          0
  minor            :       0.00       0.00          0          0          0          0          0          0          0          0          0          0          0
  mixing           :       0.01       0.00         92         27          0          0        147        132          0         26         26          0          0
  oddcycle         :       0.00       0.00          0          0          0          0          0          0          0          0          0          0          0
  rapidlearning    :       0.02       0.00          0          0          0          0          0          0          0          0          0          0          0
  rlt              :       0.00       0.00         10         10          0          0          0          0          0          0          0          0          0
  zerohalf         :       0.02       0.00         65         20          0          0          8          2          4          0          0          0          0
Cutselectors       :   ExecTime  SetupTime      Calls  RootCalls   Selected     Forced   Filtered  RootSelec   RootForc   RootFilt 
  hybrid           :       7.72       0.00     475622         32    9387421       3195     159101        898          1       1039
Pricers            :   ExecTime  SetupTime      Calls       Vars
  problem variables:       0.00          -          0          0
Branching Rules    :   ExecTime  SetupTime   BranchLP  BranchExt   BranchPS    Cutoffs    DomReds       Cuts      Conss   Children
  allfullstrong    :       0.00       0.00          0          0          0          0          0          0          0          0
  cloud            :       0.00       0.00          0          0          0          0          0          0          0          0
  distribution     :       0.00       0.00          0          0          0          0          0          0          0          0
  fullstrong       :       0.00       0.00          0          0          0          0          0          0          0          0
  inference        :       0.00       0.00          0          0          0          0          0          0          0          0
  leastinf         :       0.00       0.00          0          0          0          0          0          0          0          0
  lookahead        :       0.00       0.00          0          0          0          0          0          0          0          0
  mostinf          :       0.00       0.00          0          0          0          0          0          0          0          0
  multaggr         :       0.00       0.00          0          0          0          0          0          0          0          0
  nodereopt        :       0.00       0.00          0          0          0          0          0          0          0          0
  pscost           :       0.00       0.00          0          0          0          0          0          0          0          0
  random           :       0.00       0.00          0          0          0          0          0          0          0          0
  relpscost        :       0.16       0.00        709          0          0          0         63          0          0       1408
  vanillafullstrong:       0.00       0.00          0          0          0          0          0          0          0          0
Primal Heuristics  :   ExecTime  SetupTime      Calls      Found       Best
  LP solutions     :       0.00          -          -          0          0
  relax solutions  :       0.00          -          -          0          0
  pseudo solutions :       0.00          -          -          0          0
  strong branching :       0.00          -          -          0          0
  actconsdiving    :       0.00       0.00          0          0          0
  adaptivediving   :       0.02       0.00          1          0          0
  alns             :       8.96       0.00         12          0          0
  bound            :       0.00       0.00          0          0          0
  clique           :       0.02       0.00          1          0          0
  coefdiving       :       0.00       0.00          0          0          0
  completesol      :       0.00       0.00          0          0          0
  conflictdiving   :       0.02       0.00          1          0          0
  crossover        :       0.07       0.00          0          0          0
  dins             :       0.00       0.00          0          0          0
  distributiondivin:       1.54       0.00          0          0          0
  dps              :       0.00       0.00          0          0          0
  dualval          :       0.00       0.00          0          0          0
  farkasdiving     :       0.00       0.00          0          0          0
  feaspump         :       0.03       0.00          1          0          0
  fixandinfer      :       0.00       0.00          0          0          0
  fracdiving       :       0.01       0.00          1          0          0
  gins             :       0.04       0.00          0          0          0
  guideddiving     :       0.00       0.00          0          0          0
  indicator        :       0.30       0.00          0          0          0
  indicatordiving  :       0.00       0.00          0          0          0
  intdiving        :       0.00       0.00          0          0          0
  intshifting      :       0.00       0.00          3          0          0
  linesearchdiving :       0.01       0.00          0          0          0
  localbranching   :       0.00       0.00          0          0          0
  locks            :       0.01       0.00          1          0          0
  lpface           :       0.42       0.00          0          0          0
  mpec             :      10.99       0.00         11          0          0
  multistart       :       0.00       0.00          0          0          0
  mutation         :       0.00       0.00          0          0          0
  nlpdiving        :       0.00       0.00          0          0          0
  objpscostdiving  :       0.01       0.00          1          0          0
  octane           :       0.00       0.00          0          0          0
  ofins            :       0.05       0.00          0          0          0
  oneopt           :       0.32       0.00          0          0          0
  padm             :       0.00       0.00          0          0          0
  proximity        :       0.00       0.00          0          0          0
  pscostdiving     :       0.02       0.00          1          0          0
  randrounding     :       0.12       0.00         92          0          0
  rens             :       0.14       0.00          1          0          0
  reoptsols        :       0.00       0.00          0          0          0
  repair           :       0.00       0.00          0          0          0
  rins             :       0.07       0.00          0          0          0
  rootsoldiving    :       0.01       0.00          1          0          0
  rounding         :       0.33       0.00        535          0          0
  shiftandpropagate:       0.00       0.00          1          0          0
  shifting         :       0.07       0.00        138          0          0
  simplerounding   :       0.35       0.00          0          0          0
  subnlp           :       4.16       0.00         28          0          0
  trivial          :       0.00       0.00          2          0          0
  trivialnegation  :       0.00       0.00          0          0          0
  trustregion      :       0.00       0.00          0          0          0
  trysol           :       0.17       0.00          0          0          0
  twoopt           :       0.00       0.00          0          0          0
  undercover       :       0.01       0.00          1          0          0
  vbounds          :       0.00       0.00          0          0          0
  veclendiving     :       0.01       0.00          1          0          0
  zeroobj          :       0.00       0.00          0          0          0
  zirounding       :       0.12       0.00        704          0          0
  other solutions  :          -          -          -          0          -
Expressions        :   #IntEval  IntEvalTi   #RevProp  RevPropTi    DomReds    Cutoffs  #Estimate  EstimTime  Branching  #Simplify SimplifyTi Simplified
  abs              :   16820691       0.74      88221       0.01       3406          0       1066       0.00         18       3595       0.00        567
  pow              :   52314533       5.70   16093781       2.48   16591337          0  185418378       8.55   50435635       5100       0.00        896
  prod             :    4469583       0.80     749705       0.32      83162          0   14187756     276.11    4786191       6604       0.01       4875
  sum              :   41656680       7.12   26769197       7.49   12783693        622       7881       0.00          0      10382       0.01       4346
  val              :          4       0.00          0       0.00          0          0          0       0.00          0          0       0.00          0
  var              :   28600098       1.03          0       0.00          0          0          0       0.00          0      10657       0.00       2359
  varidx           :          0       0.00          0       0.00          0          0          0       0.00          0          0       0.00          0
Nlhdlrs            :    Detects  DetectAll DetectTime   #IntEval  IntEvalTi   #RevProp  RevPropTi    DomReds    Cutoffs   #Enforce   EnfoTime       Cuts  Branching
  soc              :        116        116       0.00          0       0.00          0       0.00          0          0    6488268       7.31     123575          0
  convex           :         87         87       0.00          0       0.00          0       0.00          0          0     100470       0.18     100040          0
  concave          :         87         87       0.00          0       0.00          0       0.00          0          0    3457696       1.87      29495          0
  signomial        :        136        136       0.00          0       0.00          0       0.00          0          0   10250699       5.82      28381          0
  quotient         :        120        120       0.00          0       0.00          0       0.00          0          0      37874       0.05       3027          0
  quadratic        :        219      17188       0.02   16107214      14.04    8973796      12.20    3958044        933          0       0.00          0          0
  default          :       1729      94587       0.01  115188723      19.85   43703718      42.93   29461598        622  199614660     436.33   11061312          0
  bilinear         :        286        286       0.00    2702516       0.47     662803       0.60      22162          0   14179333       2.29       3772          0
  perspective      :         51         51       0.00          0       0.00          0       0.00          8          0     482331       0.82       2393       5348
LP                 :       Time      Calls Iterations  Iter/call   Iter/sec  Time-0-It Calls-0-It    ItLimit
  primal LP        :     189.54      98131          0       0.00       0.00     189.52      98131
  dual LP          :    1446.62     844745   12225332      15.64    8450.95     101.50      63272
  lex dual LP      :       0.00          0          0       0.00          -
  barrier LP       :       0.00          0          0       0.00          -       0.00          0
  resolve instable :       0.00          1         54      54.00          -
  diving/probing LP:       1.24        907      10482      11.56    8435.17
  strong branching :       0.07         35       1169      33.40   15589.37          -          -          0
    (at root node) :          -         35       1169      33.40          -
  conflict analysis:       0.00          0          0       0.00          -
NLP relaxation     :
  solve time       :       0.00 (0 calls)
  convexity        :  nonconvex (566 linear rows, 3 convex ineq., 157 nonconvex ineq., 286 nonlinear eq. or two-sided ineq.)
NLP Solvers        :  #Problems  ProblemTi    #Solves  SolveTime      #Iter  Time/Iter      #Okay #TimeLimit #IterLimit #LObjLimit #Interrupt  #NumError #EvalError  #OutOfMem #LicenseEr #OtherTerm   #GlobOpt    #LocOpt  #Feasible #LocInfeas #GlobInfea #Unbounded   #Unknown
  ipopt            :         37       0.06         36      13.54       1830       0.01         36          0          0          0          0          0          0          0          0          0          0          0          0         36          0          0          0
B&B Tree           :
  number of runs   :          1
  nodes            :     190557 (118828 internal, 71729 leaves)
  feasible leaves  :          0
  infeas. leaves   :      71728
  objective leaves :          0
  nodes (total)    :     190557 (118828 internal, 71729 leaves)
  nodes left       :      47101
  max depth        :        111
  max depth (total):        111
  backtracks       :      14457 (7.6%)
  early backtracks :          0 (0.0%)
  nodes exc. ref.  :          0 (0.0%)
  delayed cutoffs  :          0
  repropagations   :          0 (0 domain reductions, 0 cutoffs)
  avg switch length:       7.45
  switching time   :     229.95
Root Node          :
  First LP value   : +0.00000000000000e+00
  First LP Iters   :        674 (49631.81 Iter/sec)
  First LP Time    :       0.01
  Final Dual Bound : +0.00000000000000e+00
  Final Root Iters :       2183
  Root LP Estimate : +3.69762015719332e-03
Solution           :
  Solutions found  :          0 (0 improvements)
  Primal Bound     :          -
  Dual Bound       : +0.00000000000000e+00
  Gap              :   infinite
Integrals          :      Total       Avg%
  primal-dual      :  360000.35     100.00
  primal-ref       :          -          - (not evaluated)
  dual-ref         :          -          - (not evaluated)
